2

19
1 1
2 0
3 0
4 0
5 0
6 0
7 0
8 0
9 0
10 0
11 0
12 0
13 0
14 0
15 0
16 0
17 0
18 0
19 0



2

19
1 1
2 1
3 0
4 0
5 0
6 0
7 0
8 0
9 0
10 0
11 0
12 0
13 0
14 0
15 0
16 0
17 0
18 0
19 0



2

19
1 1
2 1
3 1
4 0
5 0
6 0
7 0
8 0
9 0
10 0
11 0
12 0
13 0
14 0
15 0
16 0
17 0
18 0
19 0



2

19
1 1
2 1
3 1
4 2
5 0
6 0
7 0
8 0
9 0
10 0
11 0
12 0
13 0
14 0
15 0
16 0
17 0
18 0
19 0



2

19
1 1
2 1
3 1
4 2
5 2
6 0
7 0
8 0
9 0
10 0
11 0
12 0
13 0
14 0
15 0
16 0
17 0
18 0
19 0



2

19
1 1
2 1
3 1
4 2
5 2
6 3
7 0
8 0
9 0
10 0
11 0
12 0
13 0
14 0
15 0
16 0
17 0
18 0
19 0



2

19
1 1
2 1
3 1
4 2
5 2
6 3
7 1
8 0
9 0
10 0
11 0
12 0
13 0
14 0
15 0
16 0
17 0
18 0
19 0



2

19
1 1
2 1
3 1
4 2
5 2
6 3
7 1
8 1
9 0
10 0
11 0
12 0
13 0
14 0
15 0
16 0
17 0
18 0
19 0



2

19
1 1
2 1
3 1
4 2
5 2
6 3
7 1
8 1
9 3
10 0
11 0
12 0
13 0
14 0
15 0
16 0
17 0
18 0
19 0



2

19
1 1
2 1
3 1
4 2
5 2
6 3
7 1
8 1
9 3
10 3
11 0
12 0
13 0
14 0
15 0
16 0
17 0
18 0
19 0



2

19
1 1
2 1
3 1
4 2
5 2
6 3
7 1
8 1
9 3
10 3
11 3
12 0
13 0
14 0
15 0
16 0
17 0
18 0
19 0



2

19
1 1
2 1
3 1
4 2
5 2
6 3
7 1
8 1
9 3
10 3
11 3
12 2
13 0
14 0
15 0
16 0
17 0
18 0
19 0



2

19
1 1
2 1
3 1
4 2
5 2
6 3
7 1
8 1
9 3
10 3
11 3
12 2
13 3
14 0
15 0
16 0
17 0
18 0
19 0



2

19
1 1
2 1
3 1
4 2
5 2
6 3
7 1
8 1
9 3
10 3
11 3
12 2
13 3
14 1
15 0
16 0
17 0
18 0
19 0



2

19
1 1
2 1
3 1
4 2
5 2
6 3
7 1
8 1
9 3
10 3
11 3
12 2
13 3
14 1
15 1
16 0
17 0
18 0
19 0



2

19
1 1
2 1
3 1
4 2
5 2
6 3
7 1
8 1
9 3
10 3
11 3
12 2
13 3
14 1
15 1
16 4
17 0
18 0
19 0



2

19
1 1
2 1
3 1
4 2
5 2
6 3
7 1
8 1
9 3
10 3
11 3
12 2
13 3
14 1
15 1
16 4
17 2
18 0
19 0



2

19
1 1
2 1
3 1
4 2
5 2
6 3
7 1
8 1
9 3
10 3
11 3
12 2
13 3
14 1
15 1
16 4
17 2
18 3
19 0



2

19
1 1
2 1
3 1
4 2
5 2
6 3
7 1
8 1
9 3
10 3
11 3
12 2
13 3
14 1
15 1
16 4
17 2
18 3
19 1



